Route #1: 1 1 27 8 28 3 36 20 2 1 
Route #2: 1 6 14 25 13 18 4 17 1 
Route #3: 1 11 5 38 9 30 34 21 35 1 
Route #4: 1 32 12 15 37 24 23 7 26 31 22 29 1 
Route #5: 1 16 10 39 33 19 1 

Cost 625.823
Time 0.3690


 * Another infos *

 Iterations: 40 Time: 0.3690 sec - 0.0061 min - 0.0001 horas
0.0000 h 0.0061 min
Problem dimension: 40
